NAME : X-n214-k11
COMMENT : "Generated by Uchoa, Pecin, Pessoa, Poggi, Subramanian, and Vidal (2013)"
TYPE : CVRP
DIMENSION : 214
EDGE_WEIGHT_TYPE : EUC_2D
CAPACITY : 944
NODE_COORD_SECTION
1 500 500
2 753 355
3 663 83
4 725 286
5 581 444
6 700 205
7 630 475
8 560 407
9 848 374
10 752 315
11 454 310
12 685 227
13 747 468
14 540 348
15 882 346
16 762 228
17 884 307
18 681 274
19 761 254
20 791 205
21 699 559
22 694 352
23 679 11
24 656 446
25 428 487
26 838 395
27 554 590
28 567 250
29 769 381
30 753 20
31 710 296
32 653 489
33 711 447
34 516 322
35 704 265
36 742 358
37 578 423
38 923 378
39 451 120
40 449 254
41 626 264
42 701 203
43 751 293
44 835 0
45 810 318
46 640 218
47 493 226
48 483 445
49 671 134
50 465 361
51 521 69
52 894 399
53 824 388
54 605 238
55 848 251
56 561 443
57 663 9
58 768 339
59 634 426
60 590 60
61 735 280
62 842 365
63 671 124
64 680 251
65 615 361
66 558 451
67 884 356
68 746 384
69 687 227
70 855 350
71 656 450
72 560 459
73 591 433
74 451 36
75 747 26
76 753 384
77 530 259
78 739 215
79 537 267
80 742 304
81 509 418
82 667 17
83 534 297
84 605 382
85 470 482
86 817 366
87 815 268
88 728 264
89 778 44
90 856 360
91 818 284
92 666 107
93 628 378
94 538 317
95 715 34
96 875 290
97 495 468
98 584 145
99 725 237
100 563 394
101 775 378
102 587 443
103 535 665
104 696 387
105 704 153
106 667 448
107 557 440
108 682 461
109 762 279
110 824 522
111 764 259
112 759 334
113 750 391
114 893 283
115 900 308
116 595 73
117 641 474
118 597 236
119 294 448
120 852 182
121 526 330
122 735 460
123 901 303
124 639 390
125 545 395
126 494 2
127 741 339
128 795 456
129 783 343
130 694 224
131 756 99
132 698 323
133 683 222
134 704 269
135 769 321
136 596 321
137 605 103
138 507 448
139 567 464
140 743 205
141 622 449
142 767 116
143 745 269
144 603 447
145 634 194
146 832 312
147 796 292
148 662 86
149 608 618
150 489 267
151 837 289
152 478 510
153 569 497
154 611 550
155 749 387
156 683 355
157 682 81
158 701 170
159 653 414
160 584 21
161 683 308
162 659 582
163 668 329
164 662 288
165 897 399
166 770 366
167 540 212
168 606 309
169 581 254
170 582 485
171 848 381
172 828 150
173 536 445
174 531 56
175 707 424
176 587 191
177 770 259
178 702 94
179 823 162
180 644 364
181 570 186
182 552 317
183 626 88
184 999 631
185 860 274
186 354 662
187 625 323
188 654 285
189 785 82
190 650 335
191 637 568
192 449 359
193 885 77
194 552 440
195 810 205
196 628 24
197 728 294
198 733 311
199 750 327
200 727 278
201 618 336
202 537 137
203 718 413
204 725 355
205 710 139
206 723 556
207 449 346
208 731 373
209 349 465
210 572 542
211 612 377
212 711 417
213 678 44
214 604 593
PICKUP_AND_DELIVERY_SECTION
1 0 0 1000000000 0 0 0
2 0 0 1000000000 0 0 83
3 0 0 1000000000 0 0 84
4 0 0 1000000000 0 0 34
5 0 0 1000000000 0 17 0
6 0 0 1000000000 0 0 88
7 0 0 1000000000 0 0 59
8 0 0 1000000000 0 0 56
9 0 0 1000000000 0 33 0
10 0 0 1000000000 0 0 21
11 0 0 1000000000 0 0 37
12 0 0 1000000000 0 0 15
13 0 0 1000000000 0 97 0
14 0 0 1000000000 0 0 23
15 0 0 1000000000 0 0 76
16 0 0 1000000000 0 0 94
17 0 0 1000000000 0 99 0
18 0 0 1000000000 0 0 30
19 0 0 1000000000 0 0 44
20 0 0 1000000000 0 0 45
21 0 0 1000000000 0 8 0
22 0 0 1000000000 0 0 37
23 0 0 1000000000 0 0 43
24 0 0 1000000000 0 0 15
25 0 0 1000000000 0 18 0
26 0 0 1000000000 0 0 73
27 0 0 1000000000 0 0 65
28 0 0 1000000000 0 0 89
29 0 0 1000000000 0 5 0
30 0 0 1000000000 0 0 13
31 0 0 1000000000 0 0 64
32 0 0 1000000000 0 0 60
33 0 0 1000000000 0 20 0
34 0 0 1000000000 0 0 12
35 0 0 1000000000 0 0 59
36 0 0 1000000000 0 0 25
37 0 0 1000000000 0 2 0
38 0 0 1000000000 0 0 60
39 0 0 1000000000 0 0 61
40 0 0 1000000000 0 0 6
41 0 0 1000000000 0 17 0
42 0 0 1000000000 0 0 65
43 0 0 1000000000 0 0 26
44 0 0 1000000000 0 0 96
45 0 0 1000000000 0 21 0
46 0 0 1000000000 0 0 63
47 0 0 1000000000 0 0 29
48 0 0 1000000000 0 0 24
49 0 0 1000000000 0 51 0
50 0 0 1000000000 0 0 48
51 0 0 1000000000 0 0 65
52 0 0 1000000000 0 0 58
53 0 0 1000000000 0 40 0
54 0 0 1000000000 0 0 34
55 0 0 1000000000 0 0 81
56 0 0 1000000000 0 0 21
57 0 0 1000000000 0 51 0
58 0 0 1000000000 0 0 31
59 0 0 1000000000 0 0 20
60 0 0 1000000000 0 0 34
61 0 0 1000000000 0 47 0
62 0 0 1000000000 0 0 61
63 0 0 1000000000 0 0 2
64 0 0 1000000000 0 0 93
65 0 0 1000000000 0 75 0
66 0 0 1000000000 0 0 85
67 0 0 1000000000 0 0 27
68 0 0 1000000000 0 0 57
69 0 0 1000000000 0 86 0
70 0 0 1000000000 0 0 61
71 0 0 1000000000 0 0 98
72 0 0 1000000000 0 0 76
73 0 0 1000000000 0 68 0
74 0 0 1000000000 0 0 30
75 0 0 1000000000 0 0 72
76 0 0 1000000000 0 0 28
77 0 0 1000000000 0 12 0
78 0 0 1000000000 0 0 24
79 0 0 1000000000 0 0 42
80 0 0 1000000000 0 0 95
81 0 0 1000000000 0 3 0
82 0 0 1000000000 0 0 92
83 0 0 1000000000 0 0 32
84 0 0 1000000000 0 0 59
85 0 0 1000000000 0 33 0
86 0 0 1000000000 0 0 68
87 0 0 1000000000 0 0 30
88 0 0 1000000000 0 0 15
89 0 0 1000000000 0 40 0
90 0 0 1000000000 0 0 45
91 0 0 1000000000 0 0 33
92 0 0 1000000000 0 0 26
93 0 0 1000000000 0 70 0
94 0 0 1000000000 0 0 89
95 0 0 1000000000 0 0 29
96 0 0 1000000000 0 0 88
97 0 0 1000000000 0 69 0
98 0 0 1000000000 0 0 67
99 0 0 1000000000 0 0 94
100 0 0 1000000000 0 0 23
101 0 0 1000000000 0 97 0
102 0 0 1000000000 0 0 7
103 0 0 1000000000 0 0 23
104 0 0 1000000000 0 0 6
105 0 0 1000000000 0 65 0
106 0 0 1000000000 0 0 84
107 0 0 1000000000 0 0 79
108 0 0 1000000000 0 0 3
109 0 0 1000000000 0 99 0
110 0 0 1000000000 0 0 22
111 0 0 1000000000 0 0 69
112 0 0 1000000000 0 0 49
113 0 0 1000000000 0 33 0
114 0 0 1000000000 0 0 28
115 0 0 1000000000 0 0 49
116 0 0 1000000000 0 0 37
117 0 0 1000000000 0 18 0
118 0 0 1000000000 0 0 56
119 0 0 1000000000 0 0 44
120 0 0 1000000000 0 0 40
121 0 0 1000000000 0 64 0
122 0 0 1000000000 0 0 80
123 0 0 1000000000 0 0 9
124 0 0 1000000000 0 0 57
125 0 0 1000000000 0 3 0
126 0 0 1000000000 0 0 11
127 0 0 1000000000 0 0 95
128 0 0 1000000000 0 0 86
129 0 0 1000000000 0 79 0
130 0 0 1000000000 0 0 23
131 0 0 1000000000 0 0 60
132 0 0 1000000000 0 0 12
133 0 0 1000000000 0 62 0
134 0 0 1000000000 0 0 15
135 0 0 1000000000 0 0 89
136 0 0 1000000000 0 0 35
137 0 0 1000000000 0 85 0
138 0 0 1000000000 0 0 92
139 0 0 1000000000 0 0 49
140 0 0 1000000000 0 0 12
141 0 0 1000000000 0 10 0
142 0 0 1000000000 0 0 72
143 0 0 1000000000 0 0 64
144 0 0 1000000000 0 0 27
145 0 0 1000000000 0 18 0
146 0 0 1000000000 0 0 22
147 0 0 1000000000 0 0 17
148 0 0 1000000000 0 0 84
149 0 0 1000000000 0 21 0
150 0 0 1000000000 0 0 13
151 0 0 1000000000 0 0 77
152 0 0 1000000000 0 0 35
153 0 0 1000000000 0 100 0
154 0 0 1000000000 0 0 2
155 0 0 1000000000 0 0 50
156 0 0 1000000000 0 0 17
157 0 0 1000000000 0 75 0
158 0 0 1000000000 0 0 44
159 0 0 1000000000 0 0 56
160 0 0 1000000000 0 0 27
161 0 0 1000000000 0 85 0
162 0 0 1000000000 0 0 20
163 0 0 1000000000 0 0 31
164 0 0 1000000000 0 0 15
165 0 0 1000000000 0 10 0
166 0 0 1000000000 0 0 100
167 0 0 1000000000 0 0 51
168 0 0 1000000000 0 0 6
169 0 0 1000000000 0 7 0
170 0 0 1000000000 0 0 19
171 0 0 1000000000 0 0 87
172 0 0 1000000000 0 0 46
173 0 0 1000000000 0 74 0
174 0 0 1000000000 0 0 91
175 0 0 1000000000 0 0 79
176 0 0 1000000000 0 0 67
177 0 0 1000000000 0 38 0
178 0 0 1000000000 0 0 39
179 0 0 1000000000 0 0 40
180 0 0 1000000000 0 0 91
181 0 0 1000000000 0 71 0
182 0 0 1000000000 0 0 54
183 0 0 1000000000 0 0 80
184 0 0 1000000000 0 0 42
185 0 0 1000000000 0 28 0
186 0 0 1000000000 0 0 76
187 0 0 1000000000 0 0 59
188 0 0 1000000000 0 0 97
189 0 0 1000000000 0 12 0
190 0 0 1000000000 0 0 2
191 0 0 1000000000 0 0 64
192 0 0 1000000000 0 0 52
193 0 0 1000000000 0 63 0
194 0 0 1000000000 0 0 24
195 0 0 1000000000 0 0 8
196 0 0 1000000000 0 0 23
197 0 0 1000000000 0 69 0
198 0 0 1000000000 0 0 77
199 0 0 1000000000 0 0 60
200 0 0 1000000000 0 0 59
201 0 0 1000000000 0 10 0
202 0 0 1000000000 0 0 31
203 0 0 1000000000 0 0 94
204 0 0 1000000000 0 0 94
205 0 0 1000000000 0 18 0
206 0 0 1000000000 0 0 93
207 0 0 1000000000 0 0 68
208 0 0 1000000000 0 0 12
209 0 0 1000000000 0 69 0
210 0 0 1000000000 0 0 45
211 0 0 1000000000 0 0 22
212 0 0 1000000000 0 0 48
213 0 0 1000000000 0 95 0
214 0 0 1000000000 0 0 95
